benchmark_str_length/p2_10_15-3.dzn
Alphabet = {A,C,G,T};
ns = 10;
nc = 15;
sl = 15;
neighbours = [| I(C),I(C),I(A),I(C),I(G),I(G),I(T),I(C),I(C),I(T),I(T),I(C),I(C),Null,Null | I(C),I(C),I(A),I(T),I(T),I(C),I(C),I(C),Null,Null,Null,Null,Null,Null,Null | I(T),I(T),I(C),I(G),I(T),I(T),Null,Null,Null,Null,Null,Null,Null,Null,Null | Null,Null,Null,Null,Null,Null,Null,Null,Null,Null,Null,Null,Null,Null,Null | I(T),I(C),I(A),I(A),I(G),Null,Null,Null,Null,Null,Null,Null,Null,Null,Null | I(C),I(G),I(C),I(C),I(C),I(A),I(A),I(G),I(A),I(G),I(A),I(T),I(A),I(C),I(G) | I(T),I(T),I(A),Null,Null,Null,Null,Null,Null,Null,Null,Null,Null,Null,Null | I(T),I(C),I(T),I(A),I(C),I(G),I(T),I(C),Null,Null,Null,Null,Null,Null,Null | I(C),I(G),I(T),I(G),I(T),I(A),I(T),I(C),I(G),I(A),Null,Null,Null,Null,Null | I(A),I(A),I(A),I(A),I(T),I(T),I(C),Null,Null,Null,Null,Null,Null,Null,Null |];
