benchmark_str_length/p2_10_15-3.txt
{
	"num_strings": 10,
	"alphabet": "ACGT",
	"strings": [
		"CCACGGTCCTTCC",
		"CCATTCCC",
		"TTCGTT",
		"",
		"TCAAG",
		"CGCCCAAGAGATACG",
		"TTA",
		"TCTACGTC",
		"CGTGTATCGA",
		"AAAATTC"
	],
	"str_length":[13,8,6,0,5,15,3,8,10,7]
}